sat
(:max-memory          18.22
 :memory              17.66
 :num-allocs          18247933
 :rlimit-count        128065
 :sls-constraints     428
 :sls-ddfw-flips      11954.00
 :sls-ddfw-reinits    1
 :sls-ddfw-restarts   13
 :sls-ddfw-shifts     5129.00
 :sls.euf-conflict    1191
 :solve-eqs-elim-vars 4
 :solve-eqs-steps     8
 :time                0.08
 :total-time          0.06)
